32      4       
12      13      19      11      
0       0       0       0       0       3       2       12      13      
6       0       8       0       2       1       3       
1       7       0       0       8       2       31      4       
5       0       7       10      0       3       30      16      5       
7       11      0       0       6       2       7       6       
8       0       6       0       5       1       8       
5       0       6       0       1       3       29      23      11      
7       0       0       13      8       1       9       
9       1       2       0       0       2       23      10      
1       11      1       0       0       1       14      
2       12      0       6       0       1       14      
7       5       0       9       0       1       14      
9       0       13      0       4       1       14      
10      0       2       12      0       1       15      
9       1       0       11      0       2       28      17      
9       7       0       0       7       2       28      17      
2       1       0       0       1       2       27      18      
2       0       0       19      8       1       19      
1       7       0       0       11      1       20      
10      8       0       8       0       1       21      
1       7       0       0       4       2       26      22      
5       0       8       1       0       1       24      
4       2       2       0       0       1       24      
7       0       0       11      7       1       25      
9       0       10      9       0       1       32      
6       0       13      0       3       1       32      
2       9       0       3       0       1       32      
3       1       0       11      0       1       32      
8       0       13      19      0       1       32      
5       0       3       0       8       1       32      
4       0       4       1       0       1       32      
0       0       0       0       0       0       
